30 4
46 45 48 13 69 55 77 75 41 26 50 72 16 95 38 99 11 35 37 75 31 39 87 23 27 72 21 42 61 24
71 86 86 63 28 17 94 36 88 28 83 16 68 21 11 83 98 45 64 93 81 70 33 37 30 14 96 57 56 70
30 15 46 57 89 44 31 63 53 53 34 21 25 74 26 56 68 71 93 45 39 76 68 44 21 22 25 38 82 13
48 47 67 83 80 39 90 83 54 35 85 59 18 46 71 82 85 18 94 47 82 24 100 80 22 49 62 28 87 52
